benchmarks_vrp/CMT2/min_c/CMT2_6.vrp
NAME: CMT2_6
TYPE: CVRP
COMMENT: 835.26 - Cluster Nr.6
DIMENSION: 8
CAPACITY: 140
EDGE_WEIGHT_TYPE: EUC_2D
NODE_COORD_TYPE: TWOD_COORDS
NODE_COORD_SECTION: 
7 40 40
6 15 56
4 22 53
3 26 59
1 21 48
5 33 44
2 30 50
8 21 45
DEPOT_SECTION: 
7
-1
DEMAND_SECTION: 
5 20
6 22
2 33
3 29
1 17
4 28
8 11
7 0
EOF
