benchmarks_vrp/CMT2/min_c/CMT2_6.tour
NAME: CMT2_6 solution
TYPE: TOUR
TOUR_SECTION:
7 5 -1
7 2 3 6 4 1 8 -1
-1
EOF